153	32	4	58	
19	20	21	18

0	0	0	0	0	0	4	1	2	3	4
1	4	7	10	10	2	1	5
2	9	8	2	3	6	1	9
3	4	5	1	5	3	1	6
4	8	10	8	8	8	1	11
5	5	1	8	2	7	1	7
6	1	6	10	3	4	1	10
7	3	4	6	6	4	1	8
8	4	10	2	2	8	2	19	22
9	10	3	5	1	2	1	12
10	4	3	4	7	8	1	17
11	3	5	5	1	9	1	15
12	10	4	7	9	7	1	13
13	10	9	7	3	1	1	14
14	9	8	2	3	9	1	16
15	1	7	3	2	5	1	19
16	4	5	6	7	6	1	20
17	3	3	4	5	6	1	18
18	7	2	4	3	5	1	21
19	8	2	10	2	3	1	26
20	9	3	1	10	9	1	23
21	10	10	9	5	5	1	24
22	4	8	3	5	2	1	29
23	9	7	1	4	6	1	25
24	9	3	9	9	8	1	30
25	3	7	5	3	2	1	28
26	7	5	1	8	1	1	27
27	8	6	6	6	2	1	31
28	4	6	10	2	5	1	31
29	9	5	9	5	2	1	31
30	6	5	3	8	8	1	31
31	0	0	0	0	0	0
